c Hamiltonian cycle
c
c edges;1,2;1,4;1,5;2,3;2,6;3,4;3,7;4,8;5,6;5,8;6,7;7,8
c n = number of vertices = 8
c m = number of edges = 12
c vertex i=0,...,n-1 on position j on cycle if variable i*n+j+1 True
c
p cnf 12 1232
1 2 3 4 5 6 7 8 0
9 10 11 12 13 14 15 16 0
17 18 19 20 21 22 23 24 0
25 26 27 28 29 30 31 32 0
33 34 35 36 37 38 39 40 0
41 42 43 44 45 46 47 48 0
49 50 51 52 53 54 55 56 0
57 58 59 60 61 62 63 64 0
-1 -2 0
-1 -3 0
-1 -4 0
-1 -5 0
-1 -6 0
-1 -7 0
-1 -8 0
-9 -10 0
-9 -11 0
-9 -12 0
-9 -13 0
-9 -14 0
-9 -15 0
-9 -16 0
-17 -18 0
-17 -19 0
-17 -20 0
-17 -21 0
-17 -22 0
-17 -23 0
-17 -24 0
-25 -26 0
-25 -27 0
-25 -28 0
-25 -29 0
-25 -30 0
-25 -31 0
-25 -32 0
-33 -34 0
-33 -35 0
-33 -36 0
-33 -37 0
-33 -38 0
-33 -39 0
-33 -40 0
-41 -42 0
-41 -43 0
-41 -44 0
-41 -45 0
-41 -46 0
-41 -47 0
-41 -48 0
-49 -50 0
-49 -51 0
-49 -52 0
-49 -53 0
-49 -54 0
-49 -55 0
-49 -56 0
-57 -58 0
-57 -59 0
-57 -60 0
-57 -61 0
-57 -62 0
-57 -63 0
-57 -64 0
-2 -1 0
-2 -3 0
-2 -4 0
-2 -5 0
-2 -6 0
-2 -7 0
-2 -8 0
-10 -9 0
-10 -11 0
-10 -12 0
-10 -13 0
-10 -14 0
-10 -15 0
-10 -16 0
-18 -17 0
-18 -19 0
-18 -20 0
-18 -21 0
-18 -22 0
-18 -23 0
-18 -24 0
-26 -25 0
-26 -27 0
-26 -28 0
-26 -29 0
-26 -30 0
-26 -31 0
-26 -32 0
-34 -33 0
-34 -35 0
-34 -36 0
-34 -37 0
-34 -38 0
-34 -39 0
-34 -40 0
-42 -41 0
-42 -43 0
-42 -44 0
-42 -45 0
-42 -46 0
-42 -47 0
-42 -48 0
-50 -49 0
-50 -51 0
-50 -52 0
-50 -53 0
-50 -54 0
-50 -55 0
-50 -56 0
-58 -57 0
-58 -59 0
-58 -60 0
-58 -61 0
-58 -62 0
-58 -63 0
-58 -64 0
-3 -1 0
-3 -2 0
-3 -4 0
-3 -5 0
-3 -6 0
-3 -7 0
-3 -8 0
-11 -9 0
-11 -10 0
-11 -12 0
-11 -13 0
-11 -14 0
-11 -15 0
-11 -16 0
-19 -17 0
-19 -18 0
-19 -20 0
-19 -21 0
-19 -22 0
-19 -23 0
-19 -24 0
-27 -25 0
-27 -26 0
-27 -28 0
-27 -29 0
-27 -30 0
-27 -31 0
-27 -32 0
-35 -33 0
-35 -34 0
-35 -36 0
-35 -37 0
-35 -38 0
-35 -39 0
-35 -40 0
-43 -41 0
-43 -42 0
-43 -44 0
-43 -45 0
-43 -46 0
-43 -47 0
-43 -48 0
-51 -49 0
-51 -50 0
-51 -52 0
-51 -53 0
-51 -54 0
-51 -55 0
-51 -56 0
-59 -57 0
-59 -58 0
-59 -60 0
-59 -61 0
-59 -62 0
-59 -63 0
-59 -64 0
-4 -1 0
-4 -2 0
-4 -3 0
-4 -5 0
-4 -6 0
-4 -7 0
-4 -8 0
-12 -9 0
-12 -10 0
-12 -11 0
-12 -13 0
-12 -14 0
-12 -15 0
-12 -16 0
-20 -17 0
-20 -18 0
-20 -19 0
-20 -21 0
-20 -22 0
-20 -23 0
-20 -24 0
-28 -25 0
-28 -26 0
-28 -27 0
-28 -29 0
-28 -30 0
-28 -31 0
-28 -32 0
-36 -33 0
-36 -34 0
-36 -35 0
-36 -37 0
-36 -38 0
-36 -39 0
-36 -40 0
-44 -41 0
-44 -42 0
-44 -43 0
-44 -45 0
-44 -46 0
-44 -47 0
-44 -48 0
-52 -49 0
-52 -50 0
-52 -51 0
-52 -53 0
-52 -54 0
-52 -55 0
-52 -56 0
-60 -57 0
-60 -58 0
-60 -59 0
-60 -61 0
-60 -62 0
-60 -63 0
-60 -64 0
-5 -1 0
-5 -2 0
-5 -3 0
-5 -4 0
-5 -6 0
-5 -7 0
-5 -8 0
-13 -9 0
-13 -10 0
-13 -11 0
-13 -12 0
-13 -14 0
-13 -15 0
-13 -16 0
-21 -17 0
-21 -18 0
-21 -19 0
-21 -20 0
-21 -22 0
-21 -23 0
-21 -24 0
-29 -25 0
-29 -26 0
-29 -27 0
-29 -28 0
-29 -30 0
-29 -31 0
-29 -32 0
-37 -33 0
-37 -34 0
-37 -35 0
-37 -36 0
-37 -38 0
-37 -39 0
-37 -40 0
-45 -41 0
-45 -42 0
-45 -43 0
-45 -44 0
-45 -46 0
-45 -47 0
-45 -48 0
-53 -49 0
-53 -50 0
-53 -51 0
-53 -52 0
-53 -54 0
-53 -55 0
-53 -56 0
-61 -57 0
-61 -58 0
-61 -59 0
-61 -60 0
-61 -62 0
-61 -63 0
-61 -64 0
-6 -1 0
-6 -2 0
-6 -3 0
-6 -4 0
-6 -5 0
-6 -7 0
-6 -8 0
-14 -9 0
-14 -10 0
-14 -11 0
-14 -12 0
-14 -13 0
-14 -15 0
-14 -16 0
-22 -17 0
-22 -18 0
-22 -19 0
-22 -20 0
-22 -21 0
-22 -23 0
-22 -24 0
-30 -25 0
-30 -26 0
-30 -27 0
-30 -28 0
-30 -29 0
-30 -31 0
-30 -32 0
-38 -33 0
-38 -34 0
-38 -35 0
-38 -36 0
-38 -37 0
-38 -39 0
-38 -40 0
-46 -41 0
-46 -42 0
-46 -43 0
-46 -44 0
-46 -45 0
-46 -47 0
-46 -48 0
-54 -49 0
-54 -50 0
-54 -51 0
-54 -52 0
-54 -53 0
-54 -55 0
-54 -56 0
-62 -57 0
-62 -58 0
-62 -59 0
-62 -60 0
-62 -61 0
-62 -63 0
-62 -64 0
-7 -1 0
-7 -2 0
-7 -3 0
-7 -4 0
-7 -5 0
-7 -6 0
-7 -8 0
-15 -9 0
-15 -10 0
-15 -11 0
-15 -12 0
-15 -13 0
-15 -14 0
-15 -16 0
-23 -17 0
-23 -18 0
-23 -19 0
-23 -20 0
-23 -21 0
-23 -22 0
-23 -24 0
-31 -25 0
-31 -26 0
-31 -27 0
-31 -28 0
-31 -29 0
-31 -30 0
-31 -32 0
-39 -33 0
-39 -34 0
-39 -35 0
-39 -36 0
-39 -37 0
-39 -38 0
-39 -40 0
-47 -41 0
-47 -42 0
-47 -43 0
-47 -44 0
-47 -45 0
-47 -46 0
-47 -48 0
-55 -49 0
-55 -50 0
-55 -51 0
-55 -52 0
-55 -53 0
-55 -54 0
-55 -56 0
-63 -57 0
-63 -58 0
-63 -59 0
-63 -60 0
-63 -61 0
-63 -62 0
-63 -64 0
-8 -1 0
-8 -2 0
-8 -3 0
-8 -4 0
-8 -5 0
-8 -6 0
-8 -7 0
-16 -9 0
-16 -10 0
-16 -11 0
-16 -12 0
-16 -13 0
-16 -14 0
-16 -15 0
-24 -17 0
-24 -18 0
-24 -19 0
-24 -20 0
-24 -21 0
-24 -22 0
-24 -23 0
-32 -25 0
-32 -26 0
-32 -27 0
-32 -28 0
-32 -29 0
-32 -30 0
-32 -31 0
-40 -33 0
-40 -34 0
-40 -35 0
-40 -36 0
-40 -37 0
-40 -38 0
-40 -39 0
-48 -41 0
-48 -42 0
-48 -43 0
-48 -44 0
-48 -45 0
-48 -46 0
-48 -47 0
-56 -49 0
-56 -50 0
-56 -51 0
-56 -52 0
-56 -53 0
-56 -54 0
-56 -55 0
-64 -57 0
-64 -58 0
-64 -59 0
-64 -60 0
-64 -61 0
-64 -62 0
-64 -63 0
1 9 17 25 33 41 49 57 0
2 10 18 26 34 42 50 58 0
3 11 19 27 35 43 51 59 0
4 12 20 28 36 44 52 60 0
5 13 21 29 37 45 53 61 0
6 14 22 30 38 46 54 62 0
7 15 23 31 39 47 55 63 0
8 16 24 32 40 48 56 64 0
-1 -9 0
-2 -10 0
-3 -11 0
-4 -12 0
-5 -13 0
-6 -14 0
-7 -15 0
-8 -16 0
-1 -17 0
-2 -18 0
-3 -19 0
-4 -20 0
-5 -21 0
-6 -22 0
-7 -23 0
-8 -24 0
-1 -25 0
-2 -26 0
-3 -27 0
-4 -28 0
-5 -29 0
-6 -30 0
-7 -31 0
-8 -32 0
-1 -33 0
-2 -34 0
-3 -35 0
-4 -36 0
-5 -37 0
-6 -38 0
-7 -39 0
-8 -40 0
-1 -41 0
-2 -42 0
-3 -43 0
-4 -44 0
-5 -45 0
-6 -46 0
-7 -47 0
-8 -48 0
-1 -49 0
-2 -50 0
-3 -51 0
-4 -52 0
-5 -53 0
-6 -54 0
-7 -55 0
-8 -56 0
-1 -57 0
-2 -58 0
-3 -59 0
-4 -60 0
-5 -61 0
-6 -62 0
-7 -63 0
-8 -64 0
-9 -1 0
-10 -2 0
-11 -3 0
-12 -4 0
-13 -5 0
-14 -6 0
-15 -7 0
-16 -8 0
-9 -17 0
-10 -18 0
-11 -19 0
-12 -20 0
-13 -21 0
-14 -22 0
-15 -23 0
-16 -24 0
-9 -25 0
-10 -26 0
-11 -27 0
-12 -28 0
-13 -29 0
-14 -30 0
-15 -31 0
-16 -32 0
-9 -33 0
-10 -34 0
-11 -35 0
-12 -36 0
-13 -37 0
-14 -38 0
-15 -39 0
-16 -40 0
-9 -41 0
-10 -42 0
-11 -43 0
-12 -44 0
-13 -45 0
-14 -46 0
-15 -47 0
-16 -48 0
-9 -49 0
-10 -50 0
-11 -51 0
-12 -52 0
-13 -53 0
-14 -54 0
-15 -55 0
-16 -56 0
-9 -57 0
-10 -58 0
-11 -59 0
-12 -60 0
-13 -61 0
-14 -62 0
-15 -63 0
-16 -64 0
-17 -1 0
-18 -2 0
-19 -3 0
-20 -4 0
-21 -5 0
-22 -6 0
-23 -7 0
-24 -8 0
-17 -9 0
-18 -10 0
-19 -11 0
-20 -12 0
-21 -13 0
-22 -14 0
-23 -15 0
-24 -16 0
-17 -25 0
-18 -26 0
-19 -27 0
-20 -28 0
-21 -29 0
-22 -30 0
-23 -31 0
-24 -32 0
-17 -33 0
-18 -34 0
-19 -35 0
-20 -36 0
-21 -37 0
-22 -38 0
-23 -39 0
-24 -40 0
-17 -41 0
-18 -42 0
-19 -43 0
-20 -44 0
-21 -45 0
-22 -46 0
-23 -47 0
-24 -48 0
-17 -49 0
-18 -50 0
-19 -51 0
-20 -52 0
-21 -53 0
-22 -54 0
-23 -55 0
-24 -56 0
-17 -57 0
-18 -58 0
-19 -59 0
-20 -60 0
-21 -61 0
-22 -62 0
-23 -63 0
-24 -64 0
-25 -1 0
-26 -2 0
-27 -3 0
-28 -4 0
-29 -5 0
-30 -6 0
-31 -7 0
-32 -8 0
-25 -9 0
-26 -10 0
-27 -11 0
-28 -12 0
-29 -13 0
-30 -14 0
-31 -15 0
-32 -16 0
-25 -17 0
-26 -18 0
-27 -19 0
-28 -20 0
-29 -21 0
-30 -22 0
-31 -23 0
-32 -24 0
-25 -33 0
-26 -34 0
-27 -35 0
-28 -36 0
-29 -37 0
-30 -38 0
-31 -39 0
-32 -40 0
-25 -41 0
-26 -42 0
-27 -43 0
-28 -44 0
-29 -45 0
-30 -46 0
-31 -47 0
-32 -48 0
-25 -49 0
-26 -50 0
-27 -51 0
-28 -52 0
-29 -53 0
-30 -54 0
-31 -55 0
-32 -56 0
-25 -57 0
-26 -58 0
-27 -59 0
-28 -60 0
-29 -61 0
-30 -62 0
-31 -63 0
-32 -64 0
-33 -1 0
-34 -2 0
-35 -3 0
-36 -4 0
-37 -5 0
-38 -6 0
-39 -7 0
-40 -8 0
-33 -9 0
-34 -10 0
-35 -11 0
-36 -12 0
-37 -13 0
-38 -14 0
-39 -15 0
-40 -16 0
-33 -17 0
-34 -18 0
-35 -19 0
-36 -20 0
-37 -21 0
-38 -22 0
-39 -23 0
-40 -24 0
-33 -25 0
-34 -26 0
-35 -27 0
-36 -28 0
-37 -29 0
-38 -30 0
-39 -31 0
-40 -32 0
-33 -41 0
-34 -42 0
-35 -43 0
-36 -44 0
-37 -45 0
-38 -46 0
-39 -47 0
-40 -48 0
-33 -49 0
-34 -50 0
-35 -51 0
-36 -52 0
-37 -53 0
-38 -54 0
-39 -55 0
-40 -56 0
-33 -57 0
-34 -58 0
-35 -59 0
-36 -60 0
-37 -61 0
-38 -62 0
-39 -63 0
-40 -64 0
-41 -1 0
-42 -2 0
-43 -3 0
-44 -4 0
-45 -5 0
-46 -6 0
-47 -7 0
-48 -8 0
-41 -9 0
-42 -10 0
-43 -11 0
-44 -12 0
-45 -13 0
-46 -14 0
-47 -15 0
-48 -16 0
-41 -17 0
-42 -18 0
-43 -19 0
-44 -20 0
-45 -21 0
-46 -22 0
-47 -23 0
-48 -24 0
-41 -25 0
-42 -26 0
-43 -27 0
-44 -28 0
-45 -29 0
-46 -30 0
-47 -31 0
-48 -32 0
-41 -33 0
-42 -34 0
-43 -35 0
-44 -36 0
-45 -37 0
-46 -38 0
-47 -39 0
-48 -40 0
-41 -49 0
-42 -50 0
-43 -51 0
-44 -52 0
-45 -53 0
-46 -54 0
-47 -55 0
-48 -56 0
-41 -57 0
-42 -58 0
-43 -59 0
-44 -60 0
-45 -61 0
-46 -62 0
-47 -63 0
-48 -64 0
-49 -1 0
-50 -2 0
-51 -3 0
-52 -4 0
-53 -5 0
-54 -6 0
-55 -7 0
-56 -8 0
-49 -9 0
-50 -10 0
-51 -11 0
-52 -12 0
-53 -13 0
-54 -14 0
-55 -15 0
-56 -16 0
-49 -17 0
-50 -18 0
-51 -19 0
-52 -20 0
-53 -21 0
-54 -22 0
-55 -23 0
-56 -24 0
-49 -25 0
-50 -26 0
-51 -27 0
-52 -28 0
-53 -29 0
-54 -30 0
-55 -31 0
-56 -32 0
-49 -33 0
-50 -34 0
-51 -35 0
-52 -36 0
-53 -37 0
-54 -38 0
-55 -39 0
-56 -40 0
-49 -41 0
-50 -42 0
-51 -43 0
-52 -44 0
-53 -45 0
-54 -46 0
-55 -47 0
-56 -48 0
-49 -57 0
-50 -58 0
-51 -59 0
-52 -60 0
-53 -61 0
-54 -62 0
-55 -63 0
-56 -64 0
-57 -1 0
-58 -2 0
-59 -3 0
-60 -4 0
-61 -5 0
-62 -6 0
-63 -7 0
-64 -8 0
-57 -9 0
-58 -10 0
-59 -11 0
-60 -12 0
-61 -13 0
-62 -14 0
-63 -15 0
-64 -16 0
-57 -17 0
-58 -18 0
-59 -19 0
-60 -20 0
-61 -21 0
-62 -22 0
-63 -23 0
-64 -24 0
-57 -25 0
-58 -26 0
-59 -27 0
-60 -28 0
-61 -29 0
-62 -30 0
-63 -31 0
-64 -32 0
-57 -33 0
-58 -34 0
-59 -35 0
-60 -36 0
-61 -37 0
-62 -38 0
-63 -39 0
-64 -40 0
-57 -41 0
-58 -42 0
-59 -43 0
-60 -44 0
-61 -45 0
-62 -46 0
-63 -47 0
-64 -48 0
-57 -49 0
-58 -50 0
-59 -51 0
-60 -52 0
-61 -53 0
-62 -54 0
-63 -55 0
-64 -56 0
-1 -2 0
-2 -3 0
-3 -4 0
-4 -5 0
-5 -6 0
-6 -7 0
-7 -8 0
-1 -18 0
-2 -19 0
-3 -20 0
-4 -21 0
-5 -22 0
-6 -23 0
-7 -24 0
-1 -42 0
-2 -43 0
-3 -44 0
-4 -45 0
-5 -46 0
-6 -47 0
-7 -48 0
-1 -50 0
-2 -51 0
-3 -52 0
-4 -53 0
-5 -54 0
-6 -55 0
-7 -56 0
-1 -58 0
-2 -59 0
-3 -60 0
-4 -61 0
-5 -62 0
-6 -63 0
-7 -64 0
-9 -10 0
-10 -11 0
-11 -12 0
-12 -13 0
-13 -14 0
-14 -15 0
-15 -16 0
-9 -26 0
-10 -27 0
-11 -28 0
-12 -29 0
-13 -30 0
-14 -31 0
-15 -32 0
-9 -34 0
-10 -35 0
-11 -36 0
-12 -37 0
-13 -38 0
-14 -39 0
-15 -40 0
-9 -50 0
-10 -51 0
-11 -52 0
-12 -53 0
-13 -54 0
-14 -55 0
-15 -56 0
-9 -58 0
-10 -59 0
-11 -60 0
-12 -61 0
-13 -62 0
-14 -63 0
-15 -64 0
-17 -2 0
-18 -3 0
-19 -4 0
-20 -5 0
-21 -6 0
-22 -7 0
-23 -8 0
-17 -18 0
-18 -19 0
-19 -20 0
-20 -21 0
-21 -22 0
-22 -23 0
-23 -24 0
-17 -34 0
-18 -35 0
-19 -36 0
-20 -37 0
-21 -38 0
-22 -39 0
-23 -40 0
-17 -42 0
-18 -43 0
-19 -44 0
-20 -45 0
-21 -46 0
-22 -47 0
-23 -48 0
-17 -58 0
-18 -59 0
-19 -60 0
-20 -61 0
-21 -62 0
-22 -63 0
-23 -64 0
-25 -10 0
-26 -11 0
-27 -12 0
-28 -13 0
-29 -14 0
-30 -15 0
-31 -16 0
-25 -26 0
-26 -27 0
-27 -28 0
-28 -29 0
-29 -30 0
-30 -31 0
-31 -32 0
-25 -34 0
-26 -35 0
-27 -36 0
-28 -37 0
-29 -38 0
-30 -39 0
-31 -40 0
-25 -42 0
-26 -43 0
-27 -44 0
-28 -45 0
-29 -46 0
-30 -47 0
-31 -48 0
-25 -50 0
-26 -51 0
-27 -52 0
-28 -53 0
-29 -54 0
-30 -55 0
-31 -56 0
-33 -10 0
-34 -11 0
-35 -12 0
-36 -13 0
-37 -14 0
-38 -15 0
-39 -16 0
-33 -18 0
-34 -19 0
-35 -20 0
-36 -21 0
-37 -22 0
-38 -23 0
-39 -24 0
-33 -26 0
-34 -27 0
-35 -28 0
-36 -29 0
-37 -30 0
-38 -31 0
-39 -32 0
-33 -34 0
-34 -35 0
-35 -36 0
-36 -37 0
-37 -38 0
-38 -39 0
-39 -40 0
-33 -50 0
-34 -51 0
-35 -52 0
-36 -53 0
-37 -54 0
-38 -55 0
-39 -56 0
-41 -2 0
-42 -3 0
-43 -4 0
-44 -5 0
-45 -6 0
-46 -7 0
-47 -8 0
-41 -18 0
-42 -19 0
-43 -20 0
-44 -21 0
-45 -22 0
-46 -23 0
-47 -24 0
-41 -26 0
-42 -27 0
-43 -28 0
-44 -29 0
-45 -30 0
-46 -31 0
-47 -32 0
-41 -42 0
-42 -43 0
-43 -44 0
-44 -45 0
-45 -46 0
-46 -47 0
-47 -48 0
-41 -58 0
-42 -59 0
-43 -60 0
-44 -61 0
-45 -62 0
-46 -63 0
-47 -64 0
-49 -2 0
-50 -3 0
-51 -4 0
-52 -5 0
-53 -6 0
-54 -7 0
-55 -8 0
-49 -10 0
-50 -11 0
-51 -12 0
-52 -13 0
-53 -14 0
-54 -15 0
-55 -16 0
-49 -26 0
-50 -27 0
-51 -28 0
-52 -29 0
-53 -30 0
-54 -31 0
-55 -32 0
-49 -34 0
-50 -35 0
-51 -36 0
-52 -37 0
-53 -38 0
-54 -39 0
-55 -40 0
-49 -50 0
-50 -51 0
-51 -52 0
-52 -53 0
-53 -54 0
-54 -55 0
-55 -56 0
-57 -2 0
-58 -3 0
-59 -4 0
-60 -5 0
-61 -6 0
-62 -7 0
-63 -8 0
-57 -10 0
-58 -11 0
-59 -12 0
-60 -13 0
-61 -14 0
-62 -15 0
-63 -16 0
-57 -18 0
-58 -19 0
-59 -20 0
-60 -21 0
-61 -22 0
-62 -23 0
-63 -24 0
-57 -42 0
-58 -43 0
-59 -44 0
-60 -45 0
-61 -46 0
-62 -47 0
-63 -48 0
-57 -58 0
-58 -59 0
-59 -60 0
-60 -61 0
-61 -62 0
-62 -63 0
-63 -64 0
-1 -8 0
-1 -24 0
-1 -48 0
-1 -56 0
-1 -64 0
-9 -16 0
-9 -32 0
-9 -40 0
-9 -56 0
-9 -64 0
-17 -8 0
-17 -24 0
-17 -40 0
-17 -48 0
-17 -64 0
-25 -16 0
-25 -32 0
-25 -40 0
-25 -48 0
-25 -56 0
-33 -16 0
-33 -24 0
-33 -32 0
-33 -40 0
-33 -56 0
-41 -8 0
-41 -24 0
-41 -32 0
-41 -48 0
-41 -64 0
-49 -8 0
-49 -16 0
-49 -32 0
-49 -40 0
-49 -56 0
-57 -8 0
-57 -16 0
-57 -24 0
-57 -48 0
-57 -64 0
